p cnf 18 19
1 3 5 7 9 11 13 15 -16 17 -10 -8 -6 -2 0
1 3 5 12 13 -18 15 -16 -14 -10 -8 -6 -4 -2 0
1 5 7 13 -18 15 -16 17 -14 -12 -10 -8 -4 -2 0
1 3 5 7 11 -18 15 -16 17 -13 -12 -8 -6 -4 0
1 3 7 9 11 13 -18 15 -16 17 -12 -8 -4 -2 0
6 15 17 -12 -5 0
13 -18 -14 -12 -7 0
4 9 11 13 -14 0
-18 15 -16 17 -10 -1 0
9 11 14 -13 -12 0
2 11 -1 -18 0
13 15 -12 -10 -7 0
11 -18 -16 17 -5 0
9 17 -10 -18 0
8 -7 11 0
4 -3 0
1 9 11 13 15 -16 -14 -12 -8 -2 0
1 3 5 7 9 13 -18 17 -14 -6 -4 0
1 13 15 -16 -17 -14 -12 -8 -4 0
